min: 1 x1 + 1 x2 + 1 x3 + 1 x4 + 1 x5 + 1 x6 + 1 x7 + 1 x8 + 1 x9 + 1 x10 + 1 x11 + 1 x12 + 1 x13 + 1 x14 + 1 x15 + 1 x16 + 1 x17 + 1 x18 + 1 x19 + 1 x20 + 1 x21 + 1 x22 + 1 x23 + 1 x24 + 1 x25 + 1 x26 + 1 x27 + 1 x28 + 1 x29 + 1 x30 + 1 x31 + 1 x32 + 1 x33 + 1 x34 + 1 x35 + 1 x36 + 1 x37 + 1 x38 + 1 x39 + 1 x40 + 1 x41 + 1 x42 + 1 x43 + 1 x44 + 1 x45 + 1 x46 + 1 x47 + 1 x48 + 1 x49 + 1 x50 + 1 x51 + 1 x52 + 1 x53 + 1 x54 + 1 x55 + 1 x56 + 1 x57 + 1 x58 + 1 x59 + 1 x60 + 1 x61 + 1 x62 + 1 x63 + 1 x64 + 1 x65 + 1 x66 + 1 x67 + 1 x68 + 1 x69 + 1 x70 + 1 x71 + 1 x72 + 1 x73 + 1 x74 + 1 x75 + 1 x76 + 1 x77 + 1 x78 + 1 x79 + 1 x80 + 1 x81 + 1 x82 + 1 x83 + 1 x84 + 1 x85 + 1 x86 + 1 x87 + 1 x88 + 1 x89 + 1 x90 + 1 x91 + 1 x92 + 1 x93 + 1 x94 + 1 x95 + 1 x96 + 1 x97 + 1 x98 + 1 x99 + 1 x100;

r1: x68 + x60 + x74 + x18 + x86 + x17 + x26 + x56 >= 1;
r2: x55 + x44 + x50 + x41 + x15 >= 1;
r3: x47 + x3 + x72 + x34 + x76 + x73 + x7 + x86 >= 1;
r4: x91 + x77 + x19 + x57 + x88 + x46 >= 1;
r5: x48 + x6 >= 1;
r6: x99 + x3 + x82 + x76 + x65 + x58 + x100 >= 1;
r7: x99 + x57 >= 1;
r8: x48 + x35 + x3 + x52 >= 1;
r9: x51 + x25 + x43 + x41 >= 1;
r10: x70 + x42 + x35 + x60 >= 1;
r11: x34 + x55 + x26 + x36 + x97 >= 1;
r12: x95 + x70 + x23 + x45 + x57 + x51 + x61 >= 1;
r13: x47 + x87 + x21 + x100 + x48 + x37 + x43 >= 1;
r14: x28 + x49 + x90 + x47 + x84 + x50 + x22 + x45 >= 1;
r15: x72 + x78 >= 1;
r16: x52 + x49 + x98 + x16 + x55 + x5 + x65 + x41 >= 1;
r17: x97 + x94 + x3 + x34 >= 1;
r18: x66 + x38 >= 1;
r19: x14 >= 1;
r20: x63 + x84 + x4 + x87 + x85 + x93 + x71 + x30 >= 1;
r21: x83 + x19 + x90 >= 1;
r22: x23 + x52 >= 1;
r23: x92 + x100 + x2 + x22 + x50 >= 1;
r24: x7 >= 1;
r25: x92 >= 1;
r26: x15 + x22 >= 1;
r27: x92 + x31 + x16 + x20 + x51 >= 1;
r28: x43 + x74 + x38 + x49 + x87 + x63 + x56 + x42 >= 1;
r29: x11 + x77 + x62 + x73 + x13 + x24 + x45 >= 1;
r30: x68 + x27 + x67 + x26 >= 1;
r31: x6 + x27 + x70 + x72 + x90 + x69 >= 1;
r32: x57 + x69 >= 1;
r33: x12 + x33 + x18 + x91 + x8 + x75 >= 1;
r34: x98 >= 1;
r35: x17 + x23 + x16 + x35 + x1 + x40 + x6 >= 1;
r36: x17 + x10 + x6 + x100 + x95 + x24 + x55 + x32 >= 1;
r37: x67 >= 1;
r38: x27 + x85 + x24 + x76 >= 1;
r39: x49 + x48 + x30 >= 1;
r40: x86 + x70 + x7 + x80 + x8 + x13 + x84 + x82 >= 1;
r41: x58 + x22 + x13 + x57 >= 1;
r42: x21 >= 1;
r43: x84 + x73 + x54 + x3 >= 1;
r44: x3 + x35 + x98 + x67 >= 1;
r45: x51 >= 1;
r46: x84 + x91 + x92 + x45 + x3 >= 1;
r47: x33 + x86 + x35 + x83 + x30 >= 1;
r48: x50 + x67 + x34 + x82 >= 1;
r49: x41 + x98 + x49 + x39 >= 1;
r50: x46 + x25 + x84 + x48 + x61 + x35 + x24 + x69 >= 1;
r51: x42 + x50 + x27 + x1 >= 1;
r52: x71 + x82 + x68 + x23 + x63 >= 1;
r53: x82 + x75 + x4 + x65 + x17 + x98 + x46 >= 1;
r54: x46 + x64 + x59 + x88 + x92 + x40 + x68 >= 1;
r55: x13 + x39 + x90 + x86 + x17 + x70 + x81 + x88 >= 1;
r56: x71 + x50 + x92 + x97 + x31 + x21 >= 1;
r57: x45 + x84 + x94 + x93 + x48 >= 1;
r58: x70 >= 1;
r59: x21 + x68 >= 1;
r60: x22 + x47 + x100 + x72 + x39 + x80 + x74 + x76 >= 1;
r61: x21 + x9 + x82 + x45 >= 1;
r62: x82 + x58 + x53 + x70 + x43 >= 1;
r63: x64 >= 1;
r64: x95 + x55 >= 1;
r65: x70 + x74 + x47 + x32 + x76 + x41 + x100 >= 1;
r66: x89 + x39 >= 1;
r67: x61 + x55 + x91 + x80 + x50 + x41 + x15 >= 1;
r68: x17 + x39 + x74 >= 1;
r69: x30 + x48 + x85 + x8 >= 1;
r70: x14 + x100 + x25 >= 1;
r71: x27 >= 1;
r72: x77 + x57 + x71 + x90 + x65 >= 1;
r73: x54 + x44 >= 1;
r74: x16 + x52 + x13 + x28 + x66 + x4 + x62 >= 1;
r75: x22 + x62 + x21 + x20 >= 1;
r76: x16 + x48 + x67 + x66 + x9 + x52 + x72 >= 1;
r77: x57 + x44 >= 1;
r78: x88 + x67 >= 1;
r79: x98 + x72 + x18 + x69 + x67 + x96 + x81 + x95 >= 1;
r80: x15 + x92 + x34 + x46 + x83 + x66 + x2 >= 1;
r81: x24 + x94 + x2 + x84 + x19 + x22 + x50 >= 1;
r82: x98 + x52 + x17 + x12 + x49 + x93 + x40 + x20 >= 1;
r83: x97 + x6 + x9 + x81 + x48 >= 1;
r84: x23 + x67 + x46 + x76 + x56 + x65 + x3 + x82 >= 1;
r85: x31 + x17 >= 1;
r86: x90 + x96 + x62 >= 1;
r87: x25 >= 1;
r88: x99 + x80 + x69 + x15 + x12 >= 1;
r89: x20 >= 1;
r90: x57 + x78 + x55 + x71 + x43 + x63 + x67 + x1 >= 1;
r91: x88 + x55 >= 1;
r92: x81 + x83 + x98 + x47 + x37 + x68 + x14 >= 1;
r93: x14 + x73 >= 1;
r94: x38 + x31 + x45 + x50 + x93 >= 1;
r95: x17 + x50 + x7 + x33 + x75 + x36 >= 1;
r96: x59 + x70 + x99 + x50 + x80 + x11 + x85 + x63 >= 1;
r97: x10 + x77 + x26 + x67 + x78 + x91 >= 1;
r98: x39 + x63 + x19 + x82 + x78 + x26 + x18 >= 1;
r99: x86 + x7 + x45 + x3 + x17 + x75 + x71 + x44 >= 1;
r100: x24 + x4 + x93 + x47 + x75 >= 1;
r101: x5 + x44 + x77 + x45 + x25 + x61 + x70 + x4 >= 1;
r102: x9 + x65 + x19 + x1 + x80 + x22 >= 1;
r103: x92 + x66 + x10 + x97 + x87 >= 1;
r104: x6 + x29 >= 1;
r105: x91 + x95 + x70 + x38 + x45 + x6 + x65 + x85 >= 1;
r106: x20 + x66 + x74 + x91 >= 1;
r107: x82 + x11 + x7 + x35 + x52 + x31 + x73 >= 1;
r108: x66 + x60 + x68 + x72 + x64 + x4 + x57 + x15 >= 1;
r109: x31 + x39 + x10 + x2 + x100 + x28 + x71 + x40 >= 1;
r110: x9 + x34 + x27 + x62 + x99 >= 1;
r111: x52 + x58 + x10 + x88 + x38 + x13 + x43 >= 1;
r112: x23 + x68 + x20 + x33 + x65 + x55 >= 1;
r113: x83 + x92 + x93 + x8 + x64 + x47 + x98 + x3 >= 1;
r114: x48 + x54 >= 1;
r115: x41 >= 1;
r116: x57 + x64 + x40 + x10 + x20 + x65 + x95 >= 1;
r117: x17 + x99 + x1 + x30 >= 1;
r118: x27 + x60 + x54 + x47 >= 1;
r119: x75 >= 1;
r120: x70 + x13 + x68 >= 1;
r121: x29 + x33 + x70 + x31 + x44 >= 1;
r122: x20 + x29 + x42 >= 1;
r123: x34 + x18 + x48 + x29 + x15 + x74 + x25 >= 1;
r124: x40 + x52 + x27 + x65 >= 1;
r125: x49 >= 1;
r126: x16 >= 1;
r127: x71 + x9 + x18 + x96 + x83 + x1 + x24 + x28 >= 1;
r128: x72 + x44 + x5 + x66 + x17 + x81 >= 1;
r129: x56 + x30 + x4 >= 1;
r130: x85 + x11 + x97 + x39 + x77 + x87 >= 1;
r131: x45 + x24 + x64 >= 1;
r132: x30 + x4 + x36 + x74 + x32 + x79 + x46 >= 1;
r133: x38 + x11 + x99 + x26 >= 1;
r134: x70 + x2 + x38 + x39 + x82 + x35 + x86 >= 1;
r135: x32 + x5 + x4 + x15 + x84 >= 1;
r136: x7 + x27 + x94 + x92 >= 1;
r137: x18 + x89 + x41 + x1 + x48 + x6 >= 1;
r138: x99 + x88 >= 1;
r139: x15 + x95 >= 1;
r140: x55 + x36 >= 1;
r141: x100 + x6 + x4 + x95 + x96 >= 1;
r142: x78 + x6 + x100 + x29 + x36 + x62 + x26 + x82 >= 1;
r143: x18 + x99 + x42 >= 1;
r144: x99 + x6 + x69 + x19 + x25 + x27 + x51 + x60 >= 1;
r145: x16 + x55 + x46 + x65 + x92 + x57 + x90 >= 1;
r146: x93 + x62 + x6 >= 1;
r147: x45 + x14 + x69 + x75 + x12 + x71 >= 1;
r148: x66 + x47 >= 1;
r149: x39 >= 1;
r150: x24 + x71 + x73 + x35 + x29 + x69 + x42 >= 1;
r151: x94 + x43 + x55 + x6 + x71 >= 1;
r152: x20 >= 1;
r153: x47 + x65 + x28 + x73 >= 1;
r154: x1 + x43 + x86 + x67 + x52 + x38 >= 1;
r155: x73 + x96 >= 1;
r156: x8 + x76 >= 1;
r157: x14 + x28 >= 1;
r158: x45 + x7 + x19 + x58 + x96 >= 1;
r159: x8 + x48 + x19 + x76 + x70 + x51 >= 1;
r160: x69 >= 1;
r161: x55 + x53 >= 1;
r162: x33 + x80 + x26 + x88 + x65 + x20 >= 1;
r163: x8 + x27 + x61 + x84 + x51 + x80 + x92 + x30 >= 1;
r164: x65 + x77 + x43 + x98 + x8 + x53 >= 1;
r165: x28 >= 1;
r166: x63 + x23 + x91 + x6 + x95 + x15 + x74 >= 1;
r167: x38 + x40 + x85 + x67 >= 1;
r168: x62 + x91 + x85 + x11 + x54 >= 1;
r169: x34 + x55 + x80 + x3 + x57 >= 1;
r170: x82 + x95 + x28 + x73 + x65 + x48 + x1 >= 1;
r171: x33 + x50 + x77 + x70 + x20 + x47 >= 1;
r172: x97 >= 1;
r173: x80 >= 1;
r174: x56 + x84 + x95 + x7 + x8 + x52 + x10 + x44 >= 1;
r175: x53 + x29 >= 1;
r176: x26 + x30 + x81 >= 1;
r177: x98 + x80 + x87 + x11 >= 1;
r178: x32 + x88 + x64 + x91 + x16 >= 1;
r179: x46 + x32 + x54 + x26 >= 1;
r180: x3 + x26 + x48 + x23 + x58 + x31 + x32 + x11 >= 1;
r181: x39 + x15 + x64 + x42 + x80 >= 1;
r182: x33 + x70 >= 1;
r183: x75 >= 1;
r184: x33 + x8 + x81 + x66 >= 1;
r185: x21 + x75 + x67 + x87 + x57 + x63 >= 1;
r186: x47 + x65 + x28 + x53 + x3 + x5 + x68 + x87 >= 1;
r187: x97 + x86 + x13 + x22 + x72 + x68 + x45 + x1 >= 1;
r188: x27 + x100 + x3 + x83 + x81 >= 1;
r189: x41 + x100 + x30 + x17 + x25 >= 1;
r190: x34 + x94 + x8 + x37 + x86 + x12 >= 1;
r191: x15 + x19 + x96 + x41 + x18 + x23 + x20 + x24 >= 1;
r192: x13 + x29 + x76 >= 1;
r193: x96 + x71 + x34 + x49 + x7 >= 1;
r194: x21 + x5 + x45 + x68 + x18 + x61 + x27 >= 1;
r195: x74 >= 1;
r196: x84 + x13 + x9 + x82 + x31 + x80 >= 1;
r197: x65 + x30 + x14 + x41 + x71 + x54 >= 1;
r198: x8 >= 1;
r199: x60 + x76 + x42 + x62 + x46 >= 1;
r200: x37 >= 1;
r201: x14 + x84 + x71 + x80 + x65 >= 1;
r202: x28 >= 1;
r203: x42 >= 1;
r204: x77 + x67 >= 1;
r205: x100 + x45 + x7 + x1 >= 1;
r206: x75 + x44 + x83 + x25 + x30 >= 1;
r207: x61 + x2 + x35 + x13 >= 1;
r208: x77 + x20 >= 1;
r209: x37 + x29 + x20 + x51 + x43 >= 1;
r210: x42 + x2 >= 1;
r211: x63 >= 1;
r212: x100 + x27 + x10 + x7 + x63 + x1 + x79 + x50 >= 1;
r213: x55 + x1 + x88 + x4 + x40 + x46 >= 1;
r214: x90 + x50 >= 1;
r215: x25 + x57 >= 1;
r216: x68 + x2 + x38 + x3 + x46 + x58 + x75 >= 1;
r217: x82 + x24 + x23 + x59 >= 1;
r218: x30 + x16 + x60 + x33 + x10 + x92 + x98 >= 1;
r219: x54 + x61 + x97 + x67 >= 1;
r220: x22 + x79 + x93 + x8 + x59 + x70 + x46 >= 1;
r221: x17 + x53 + x14 >= 1;
r222: x33 + x90 + x86 + x3 >= 1;
r223: x97 + x5 + x83 + x60 + x21 >= 1;
r224: x54 + x22 + x80 + x61 + x31 + x5 + x59 + x23 >= 1;
r225: x24 >= 1;
r226: x50 + x89 + x44 + x31 + x57 + x12 + x54 + x9 >= 1;
r227: x80 + x72 + x36 + x69 + x90 + x51 + x79 + x18 >= 1;
r228: x82 + x25 + x48 + x84 >= 1;
r229: x15 + x42 + x52 + x69 + x20 + x18 + x17 + x27 >= 1;
r230: x81 + x50 + x72 + x15 + x66 + x17 + x27 + x97 >= 1;
r231: x10 + x50 + x94 >= 1;
r232: x11 + x57 + x6 + x80 + x90 + x25 + x7 >= 1;
r233: x80 + x16 + x40 + x14 + x49 + x62 + x38 + x74 >= 1;
r234: x23 >= 1;
r235: x82 >= 1;
r236: x79 + x46 + x49 >= 1;
r237: x58 + x74 + x55 + x70 + x84 + x78 + x12 + x88 >= 1;
r238: x23 + x26 + x69 + x68 + x77 + x43 + x15 + x60 >= 1;
r239: x53 >= 1;
r240: x39 + x85 + x56 + x50 + x12 + x91 + x64 + x46 >= 1;
r241: x98 + x4 + x71 + x47 + x88 >= 1;
r242: x90 + x65 + x26 + x31 + x95 + x74 + x99 + x8 >= 1;
r243: x59 + x19 + x62 + x96 + x74 + x85 + x6 + x25 >= 1;
r244: x22 + x20 >= 1;
r245: x40 + x83 + x81 + x52 + x94 + x21 + x96 + x34 >= 1;
r246: x66 + x5 + x28 + x9 + x33 + x70 >= 1;
r247: x5 + x34 >= 1;
r248: x13 >= 1;
r249: x70 + x42 + x19 + x2 + x30 + x44 + x26 >= 1;
r250: x87 + x1 + x99 + x29 >= 1;
r251: x26 + x79 + x98 + x8 + x96 + x57 >= 1;
r252: x70 + x37 + x14 + x61 + x67 + x29 + x25 + x62 >= 1;
r253: x67 + x47 + x93 + x76 + x49 + x2 >= 1;
r254: x8 >= 1;
r255: x44 + x74 + x56 + x27 >= 1;
r256: x72 + x63 + x49 + x90 + x4 + x10 + x19 + x31 >= 1;
r257: x84 + x52 + x36 + x57 + x93 >= 1;
r258: x30 + x3 + x64 + x12 + x97 + x80 >= 1;
r259: x57 + x64 >= 1;
r260: x43 >= 1;
r261: x45 + x61 + x10 >= 1;
r262: x16 + x91 + x38 + x99 + x84 + x69 + x1 + x90 >= 1;
r263: x76 + x77 + x45 + x23 + x4 >= 1;
r264: x86 + x28 + x75 + x41 >= 1;
r265: x4 + x44 + x32 + x10 + x20 + x52 + x94 + x90 >= 1;
r266: x37 + x56 + x29 >= 1;
r267: x63 + x74 + x41 + x33 + x46 + x2 + x52 + x61 >= 1;
r268: x83 + x8 + x85 >= 1;
r269: x35 + x79 + x21 + x68 + x96 + x49 >= 1;
r270: x13 + x4 + x95 + x25 + x9 + x50 >= 1;
r271: x77 + x6 + x57 >= 1;
r272: x16 + x49 + x27 >= 1;
r273: x74 >= 1;
r274: x3 + x93 + x12 + x98 + x99 >= 1;
r275: x99 + x59 + x21 + x60 + x89 + x32 >= 1;
r276: x12 + x46 + x58 + x8 + x55 >= 1;
r277: x20 + x9 + x19 + x76 + x15 + x39 >= 1;
r278: x81 + x55 + x26 + x88 + x78 + x93 + x6 + x59 >= 1;
r279: x32 + x27 + x85 + x64 + x18 >= 1;
r280: x9 >= 1;
r281: x61 + x4 + x1 + x33 + x96 + x90 + x100 + x86 >= 1;
r282: x35 + x83 + x79 + x88 + x91 + x38 + x68 + x22 >= 1;
r283: x97 >= 1;
r284: x83 + x94 + x40 >= 1;
r285: x33 + x58 + x93 >= 1;
r286: x19 + x82 + x26 >= 1;
r287: x31 + x24 + x25 >= 1;
r288: x22 + x15 + x91 + x49 >= 1;
r289: x71 >= 1;
r290: x18 + x84 + x82 >= 1;
r291: x83 + x95 + x11 + x37 + x62 + x78 >= 1;
r292: x55 + x41 + x67 + x34 >= 1;
r293: x18 + x58 + x47 + x59 + x32 + x6 >= 1;
r294: x62 + x28 + x53 + x72 + x4 + x56 >= 1;
r295: x79 + x54 + x84 + x94 + x60 + x88 + x40 >= 1;
r296: x22 + x56 + x43 >= 1;
r297: x71 + x54 + x4 + x51 >= 1;
r298: x27 + x100 + x53 + x40 + x6 + x81 >= 1;
r299: x72 + x56 >= 1;
r300: x21 >= 1;
r301: x39 + x59 + x13 + x96 + x79 + x44 + x100 + x88 >= 1;
r302: x31 + x84 >= 1;
r303: x2 + x43 + x51 + x61 + x26 + x97 >= 1;
r304: x100 + x87 >= 1;
r305: x23 + x40 + x26 + x50 + x68 + x60 + x96 >= 1;
r306: x34 + x47 + x80 + x93 + x30 + x89 + x20 + x21 >= 1;
r307: x25 + x10 + x76 + x52 + x34 >= 1;
r308: x22 + x90 + x100 + x80 + x36 >= 1;
r309: x32 + x82 + x90 + x19 + x9 + x84 + x6 + x36 >= 1;
r310: x16 + x73 + x36 >= 1;
r311: x71 + x14 + x32 + x6 + x5 + x11 >= 1;
r312: x19 + x48 + x41 + x72 + x25 + x7 >= 1;
r313: x84 + x43 + x97 + x85 + x73 + x19 + x7 >= 1;
r314: x75 + x68 + x95 + x85 + x38 + x3 >= 1;
r315: x56 + x80 + x59 + x67 >= 1;
r316: x30 + x89 + x59 + x31 + x80 + x17 + x1 >= 1;
r317: x34 + x80 + x59 >= 1;
r318: x64 + x86 + x93 + x25 + x48 + x94 + x44 + x43 >= 1;
r319: x67 >= 1;
r320: x72 + x91 >= 1;
r321: x9 + x72 + x56 + x49 + x3 >= 1;
r322: x85 + x7 + x97 + x100 + x72 + x54 >= 1;
r323: x89 + x17 + x64 + x41 + x100 >= 1;
r324: x43 + x74 + x54 >= 1;
r325: x73 + x4 + x40 + x59 + x25 + x77 >= 1;
r326: x37 >= 1;
r327: x100 >= 1;
r328: x94 + x13 >= 1;
r329: x25 >= 1;
r330: x67 + x33 + x17 + x97 + x54 >= 1;
r331: x20 + x69 + x30 + x58 + x64 + x9 + x52 + x91 >= 1;
r332: x68 + x64 + x46 + x13 >= 1;
r333: x13 + x78 + x30 + x67 + x88 + x51 + x89 >= 1;
r334: x95 + x37 + x39 >= 1;
r335: x87 + x98 + x13 + x45 + x18 + x36 + x85 + x92 >= 1;
r336: x33 + x88 + x14 + x45 + x23 + x70 + x13 >= 1;
r337: x66 + x4 + x63 + x82 + x9 + x48 + x6 >= 1;
r338: x17 + x87 + x62 + x78 + x74 >= 1;
r339: x34 + x90 + x56 + x31 >= 1;
r340: x80 + x58 + x88 >= 1;
r341: x14 + x68 + x26 + x64 >= 1;
r342: x96 + x81 + x58 >= 1;
r343: x23 + x74 + x42 + x9 + x55 + x26 + x5 >= 1;
r344: x36 + x21 + x64 >= 1;
r345: x12 + x61 + x24 + x79 + x37 + x74 + x14 + x16 >= 1;
r346: x36 + x20 + x63 + x100 + x22 >= 1;
r347: x91 + x4 + x34 + x42 + x24 + x15 >= 1;
r348: x85 >= 1;
r349: x70 + x21 + x68 + x92 + x88 + x2 >= 1;
r350: x34 + x75 + x59 + x77 >= 1;
r351: x16 + x43 + x100 + x63 + x65 + x81 >= 1;
r352: x48 + x13 + x35 + x88 + x19 + x25 + x96 + x84 >= 1;
r353: x57 >= 1;
r354: x26 + x4 + x77 + x49 + x71 + x35 + x73 >= 1;
r355: x39 + x74 + x82 + x93 + x44 >= 1;
r356: x35 + x5 + x12 + x6 + x72 + x58 + x18 >= 1;
r357: x66 + x23 + x63 + x73 + x81 + x87 + x75 + x77 >= 1;
r358: x14 + x26 + x44 + x94 + x12 + x10 + x65 + x9 >= 1;
r359: x6 + x55 + x8 + x21 >= 1;
r360: x88 + x78 + x41 + x36 >= 1;
r361: x2 + x81 + x49 + x78 + x88 + x68 + x84 + x40 >= 1;
r362: x37 >= 1;
r363: x44 + x60 + x95 + x87 + x38 + x13 + x16 >= 1;
r364: x45 + x37 + x95 + x61 + x11 >= 1;
r365: x59 >= 1;
r366: x21 + x94 + x17 + x9 + x22 + x16 >= 1;
r367: x14 + x34 >= 1;
r368: x85 + x67 >= 1;
r369: x37 + x73 >= 1;
r370: x96 >= 1;
r371: x98 + x88 + x32 + x35 + x82 + x27 + x3 + x86 >= 1;
r372: x9 + x17 + x49 + x40 >= 1;
r373: x69 + x2 + x30 >= 1;
r374: x69 + x58 >= 1;
r375: x1 + x55 + x18 + x44 + x69 + x19 >= 1;
r376: x30 + x20 + x32 >= 1;
r377: x44 + x18 + x27 + x31 + x59 + x74 >= 1;
r378: x13 + x50 + x32 >= 1;
r379: x15 + x86 + x96 + x81 + x24 + x94 + x80 >= 1;
r380: x28 >= 1;
r381: x19 >= 1;
r382: x59 + x22 + x10 + x82 >= 1;
r383: x32 + x64 + x70 + x68 + x43 + x4 + x88 + x1 >= 1;
r384: x72 + x97 + x89 + x73 + x80 + x91 + x22 >= 1;
r385: x50 + x48 >= 1;
r386: x61 >= 1;
r387: x4 + x53 + x59 >= 1;
r388: x28 + x43 >= 1;
r389: x26 + x43 + x4 + x32 + x55 + x6 + x39 >= 1;
r390: x25 + x24 + x79 + x26 >= 1;
r391: x34 + x94 + x6 + x100 + x18 >= 1;
r392: x84 + x33 + x39 >= 1;
r393: x65 + x10 >= 1;
r394: x15 + x44 + x93 + x75 + x12 >= 1;
r395: x48 + x69 + x70 + x86 + x76 + x9 + x61 >= 1;
r396: x55 + x69 + x71 + x28 + x18 + x63 + x9 >= 1;
r397: x61 + x4 + x77 >= 1;
r398: x34 >= 1;
r399: x45 + x10 >= 1;
r400: x47 + x40 + x1 + x41 + x93 + x26 >= 1;
r401: x38 + x34 + x30 >= 1;
r402: x50 + x24 >= 1;
r403: x47 + x56 + x30 + x74 >= 1;
r404: x2 + x47 + x75 >= 1;
r405: x85 + x29 + x79 + x24 + x38 + x44 + x16 + x84 >= 1;
r406: x11 + x30 >= 1;
r407: x88 + x1 + x27 + x50 + x56 >= 1;
r408: x77 + x41 + x48 >= 1;
r409: x58 + x87 >= 1;
r410: x23 + x68 + x78 + x86 + x85 + x51 >= 1;
r411: x36 >= 1;
r412: x89 + x27 + x61 + x58 >= 1;
r413: x25 + x65 >= 1;
r414: x97 + x34 + x47 + x12 + x4 + x69 + x65 >= 1;
r415: x62 + x2 + x84 + x34 + x94 >= 1;
r416: x7 >= 1;
r417: x63 + x52 + x97 + x99 >= 1;
r418: x32 + x67 + x62 + x57 + x54 >= 1;
r419: x78 >= 1;
r420: x23 + x15 + x73 + x41 + x37 + x25 + x71 >= 1;
r421: x69 >= 1;
r422: x21 + x31 + x45 >= 1;
r423: x77 + x81 + x39 + x55 >= 1;
r424: x57 >= 1;
r425: x85 + x61 + x70 + x19 + x86 + x47 + x96 + x9 >= 1;
r426: x35 + x23 + x53 + x37 >= 1;
r427: x57 + x98 >= 1;
r428: x2 + x27 >= 1;
r429: x34 + x46 + x1 + x87 >= 1;
r430: x48 >= 1;
r431: x97 + x57 + x51 + x7 + x99 + x85 >= 1;
r432: x70 + x66 + x25 >= 1;
r433: x39 + x77 + x3 + x29 + x83 + x38 >= 1;
r434: x92 + x12 + x88 + x91 >= 1;
r435: x98 + x39 + x67 + x15 + x26 + x50 + x18 + x4 >= 1;
r436: x44 + x6 + x93 + x33 >= 1;
r437: x7 + x68 >= 1;
r438: x90 + x5 + x25 + x69 + x14 + x62 >= 1;
r439: x48 + x28 + x73 + x36 + x39 + x54 + x25 >= 1;
r440: x45 + x47 + x6 + x99 >= 1;
r441: x40 + x88 + x82 + x6 + x49 >= 1;
r442: x20 >= 1;
r443: x81 + x39 + x16 + x9 + x44 + x56 >= 1;
r444: x99 + x20 + x43 + x65 >= 1;
r445: x34 + x47 + x81 + x76 + x79 >= 1;
r446: x80 + x94 + x81 + x43 >= 1;
r447: x85 + x26 >= 1;
r448: x91 + x23 >= 1;
r449: x14 + x32 + x70 >= 1;
r450: x42 + x49 >= 1;
r451: x6 + x90 + x45 + x55 + x48 + x73 + x97 + x8 >= 1;
r452: x29 + x71 + x74 + x95 + x73 + x87 >= 1;
r453: x60 + x98 + x8 + x74 + x56 >= 1;
r454: x97 + x26 + x65 + x57 + x10 + x98 + x17 >= 1;
r455: x88 + x82 + x54 + x14 + x29 + x76 + x95 + x75 >= 1;
r456: x96 + x99 + x64 + x56 >= 1;
r457: x11 + x87 + x2 + x49 + x54 + x92 >= 1;
r458: x72 + x22 + x58 + x36 + x48 + x79 + x23 >= 1;
r459: x92 >= 1;
r460: x36 >= 1;
r461: x47 + x69 + x46 + x32 + x22 + x62 + x45 + x27 >= 1;
r462: x60 + x41 >= 1;
r463: x69 + x2 + x9 + x78 + x6 + x22 + x31 >= 1;
r464: x63 + x61 + x75 + x47 + x91 + x23 + x64 >= 1;
r465: x93 + x47 + x32 + x61 + x63 + x82 + x60 >= 1;
r466: x48 + x4 >= 1;
r467: x48 + x45 + x24 >= 1;
r468: x40 + x47 >= 1;
r469: x60 + x75 + x91 + x30 >= 1;
r470: x48 + x1 + x12 + x79 + x82 + x73 + x64 >= 1;
r471: x44 >= 1;
r472: x46 + x31 + x9 >= 1;
r473: x5 + x22 + x77 >= 1;
r474: x17 + x93 + x15 + x75 + x4 + x90 >= 1;
r475: x19 + x39 + x1 >= 1;
r476: x35 + x66 + x34 + x89 + x1 + x52 >= 1;
r477: x28 + x19 + x9 >= 1;
r478: x98 + x8 >= 1;
r479: x93 + x68 + x8 >= 1;
r480: x3 + x11 >= 1;
r481: x50 + x91 + x75 >= 1;
r482: x89 + x7 + x23 + x43 + x49 + x45 + x100 >= 1;
r483: x71 + x35 + x27 + x52 + x24 + x88 + x97 >= 1;
r484: x2 >= 1;
r485: x88 >= 1;
r486: x99 + x100 + x25 + x64 + x54 >= 1;
r487: x86 + x9 + x60 + x22 + x8 + x38 + x23 >= 1;
r488: x84 + x27 + x40 + x79 + x30 + x6 + x3 >= 1;
r489: x49 + x23 + x42 + x6 + x7 >= 1;
r490: x29 + x70 + x10 + x52 + x22 >= 1;
r491: x3 + x71 + x45 + x67 + x2 + x70 >= 1;
r492: x80 + x12 + x93 + x62 + x77 >= 1;
r493: x68 + x71 + x67 + x77 + x46 + x32 + x84 + x93 >= 1;
r494: x46 >= 1;
r495: x97 >= 1;
r496: x21 + x28 >= 1;
r497: x60 + x77 + x38 + x99 + x6 + x40 >= 1;
r498: x45 >= 1;
r499: x5 + x68 + x38 + x50 >= 1;
r500: x69 + x76 + x42 >= 1;
r501: x44 + x4 + x63 + x43 + x71 + x7 + x39 + x3 >= 1;
r502: x88 + x60 + x25 + x53 + x17 + x68 + x52 + x64 >= 1;
r503: x29 >= 1;
r504: x73 + x48 + x37 + x53 + x39 + x4 >= 1;
r505: x20 >= 1;
r506: x47 + x62 + x52 + x33 + x86 + x95 >= 1;
r507: x39 + x38 + x4 + x96 + x71 + x89 + x64 + x34 >= 1;
r508: x4 + x20 + x87 + x24 + x60 + x81 >= 1;
r509: x21 + x84 + x27 >= 1;
r510: x54 >= 1;
r511: x42 + x62 + x4 >= 1;
r512: x95 + x25 + x62 + x60 + x33 + x73 + x80 + x47 >= 1;
r513: x48 + x80 >= 1;
r514: x71 + x52 + x84 + x65 + x96 + x92 + x57 + x40 >= 1;
r515: x6 + x90 + x4 + x28 + x16 + x52 + x88 >= 1;
r516: x17 >= 1;
r517: x96 + x62 + x32 + x5 + x58 + x88 >= 1;
r518: x29 + x50 + x28 + x40 + x12 + x59 + x76 >= 1;
r519: x23 + x27 + x19 + x7 + x57 + x28 >= 1;
r520: x28 + x9 + x98 + x38 + x66 + x55 >= 1;
r521: x59 + x24 + x79 >= 1;
r522: x6 + x93 + x44 + x73 + x83 + x78 >= 1;
r523: x1 >= 1;
r524: x90 + x49 + x58 + x21 + x82 + x52 >= 1;
r525: x20 + x69 + x48 + x47 + x32 + x53 + x92 + x64 >= 1;
r526: x87 + x74 + x46 + x96 + x13 >= 1;
r527: x23 + x15 + x93 + x32 + x11 >= 1;
r528: x25 + x9 >= 1;
r529: x13 + x64 + x61 >= 1;
r530: x28 + x32 + x60 + x52 + x88 + x20 + x36 >= 1;
r531: x90 >= 1;
r532: x42 >= 1;
r533: x32 + x40 >= 1;
r534: x37 >= 1;
r535: x35 + x57 + x47 >= 1;
r536: x35 + x96 >= 1;
r537: x33 + x79 + x3 + x69 + x36 >= 1;
r538: x12 + x90 + x31 + x91 >= 1;
r539: x47 >= 1;
r540: x84 + x12 >= 1;
r541: x94 + x72 + x56 + x64 + x37 + x79 >= 1;
r542: x18 + x22 + x97 + x9 + x72 >= 1;
r543: x81 + x67 + x45 + x59 + x68 >= 1;
r544: x92 + x85 + x80 + x61 + x24 + x52 + x42 + x34 >= 1;
r545: x80 + x1 >= 1;
r546: x85 + x84 + x74 + x81 + x86 + x21 + x65 >= 1;
r547: x26 >= 1;
r548: x81 + x10 + x7 + x57 + x60 + x83 >= 1;
r549: x38 >= 1;
r550: x64 + x71 >= 1;

bin x1, x2, x3, x4, x5, x6, x7, x8, x9, x10, x11, x12, x13, x14, x15, x16, x17, x18, x19, x20, x21, x22, x23, x24, x25, x26, x27, x28, x29, x30, x31, x32, x33, x34, x35, x36, x37, x38, x39, x40, x41, x42, x43, x44, x45, x46, x47, x48, x49, x50, x51, x52, x53, x54, x55, x56, x57, x58, x59, x60, x61, x62, x63, x64, x65, x66, x67, x68, x69, x70, x71, x72, x73, x74, x75, x76, x77, x78, x79, x80, x81, x82, x83, x84, x85, x86, x87, x88, x89, x90, x91, x92, x93, x94, x95, x96, x97, x98, x99, x100;
